NAME : netgen22-5-2
COMMENT : Generated using the function generateClusteredNetwork from the R-package netgen (Bossek,2015) - Number of clusters: 5
TYPE : TSP
DIMENSION : 22
EDGE_WEIGHT_TYPE : EUC_2D
NODE_COORD_SECTION
1 41.567876844 8.539134933
2 34.2886077529 2.6842985463
3 34.4411995938 2.9128005887
4 40.2855853298 5.4704330893
5 40.5266399336 2.244034365
6 43.087480924 10.9534136137
7 81.4240003811 96.2871307995
8 72.7576242623 94.0803824676
9 61.7431847768 98.4746744434
10 50.8782004565 95.2691996144
11 43.0775844292 25.6280778138
12 51.7550164703 23.4368450892
13 48.8646864509 21.5681317796
14 51.533448365 20.6770327237
15 86.9704566706 38.4319983805
16 90.8093008013 34.4034386959
17 80.7785672015 39.1816873083
18 88.5345507178 46.6712223879
19 4.863581509 62.3865034252
20 5.7792533798 68.1831574044
21 4.4359698675 70.1917205598
22 6.4827224593 64.6379133125
EOF
